89 142 48 195 37 197 190 20 23 112 21 198 15 95 44 39 137 121 173 107 55 11 70 154 76 193 171 159 99 119 18 146 17 42 150 
140 133 155 62 105 136 27 109 125 101 144 115 96 157 97 94 49 141 104 74 
199 84 40 128 108 168 38 176 113 46 16 90 71 127 8 116 120 56 151 75 102 66 
64 54 100 152 161 57 3 63 14 43 98 61 106 188 72 114 189 32 117 129 91 183 92 12 139 41 145 79 126 196 179 148 19 26 34 124 80 81 175 50 83 110 36 69 123 164 78 28 
4 24 85 31 59 143 184 187 77 186 58 86 138 87 9 103 178 73 158 82 147 2 
33 163 51 156 169 68 7 170 25 153 111 52 166 22 45 177 192 160 194 29 174 1 118 181 185 5 60 13 191 88 182 6 180 47 162 65 165 53 30 67 134 130 172 93 135 122 10 200 131 
149 167 132 35 

